100
120
100
99
99
98
97
95
95
94
94
94
93
92
92
91
91
91
90
89
87
87
86
86
85
84
81
81
81
81
80
79
79
79
79
78
77
75
75
75
74
74
73
73
73
71
71
70
70
69
67
67
66
64
64
63
63
63
62
61
61
61
61
60
59
59
59
59
58
58
56
56
54
54
53
53
53
52
52
51
49
45
44
44
43
43
39
37
37
37
37
37
37
36
36
35
33
32
32
31
31
30
